c This is a random SAT instance with 10 variables and 20 clauses
p cnf 10 20
2 9 -6 -3 0
-9 8 10 -1 3 0
-7 -1 -6 -9 5 -10 10 0
-3 5 7 0
-5 -10 6 -3 -6 -2 -4 0
1 -6 -2 8 -3 3 -9 -7 6 10 0
1 3 -6 -3 2 -4 7 -10 5 0
-10 -7 -4 -1 -3 -8 10 7 -5 0
4 -7 2 -9 -10 9 6 7 -8 0
-8 10 -1 -3 -6 8 -10 6 5 0
7 0
-8 1 8 -4 -6 9 -1 2 -9 -3 0
-9 7 9 8 4 3 0
-8 -4 3 -7 1 9 0
-5 5 -3 -2 0
-7 -2 7 9 -10 -5 0
4 -6 -5 7 9 5 0
10 0
10 3 5 7 2 -5 -10 0
-9 -6 0